9
0 100 93 10 28 11 67 90 83 
93 0 72 55 60 66 96 70 69 
87 80 0 65 86 23 74 26 89 
42 64 41 0 34 84 41 14 75 
3 37 11 43 0 68 65 69 24 
96 12 1 80 81 0 68 73 100 
6 99 4 24 87 39 0 74 39 
38 68 99 36 35 29 63 0 7 
17 70 86 100 57 52 9 8 0 
